Name: EasyAcademy13
Courses: 203
Rooms: 33
Days: 5
Periods_per_day: 12
Curricula: 42
Min_Max_Daily_Lectures: 3 8
UnavailabilityConstraints: 0
RoomConstraints: 0

COURSES:
c5804 t146 2 1 5 0
c5808 t126 6 4 50 0
c5850 t158 1 1 150 0
c5862 t159 4 4 150 0
c5896 t200 6 4 0 0
c5897 t167 6 4 5 0
c5898 t18 6 4 30 0
c5899 t28 4 2 30 0
c5900 no_teacher1 16 5 10 1
c5901 t6 6 4 0 0
c5902 t108 4 2 100 0
c5903 t10 6 4 150 0
c5904 t35 1 1 300 0
c5905 t12 1 1 150 0
c5906 t150 4 2 50 0
c5907 t226 4 2 60 0
c5908 t130 2 1 0 0
c5909 t19 8 4 150 0
cU1 t10 6 4 30 0
c5912 t21 6 4 150 0
c5913 t20 4 2 162 0
c5914 t192 4 2 5 0
c5915 t33 1 1 20 0
c5916 no_teacher2 6 4 0 0
c5917 t65 6 4 10 0
c5918 t20 4 2 150 0
c5919 no_teacher3 1 1 140 0
c5920 t28 1 1 50 0
c5921 t17 6 4 50 0
c5922 no_teacher4 6 4 50 0
c5923 t33 1 1 150 0
c5924 no_teacher5 6 4 60 0
c5925 no_teacher6 6 4 40 0
c5926 no_teacher7 6 4 320 0
c5927 no_teacher8 6 4 320 0
c5928 t32 1 1 20 0
c5929 no_teacher9 6 4 300 0
c5930 t32 1 1 300 0
c5931 no_teacher10 6 4 300 0
c5932 t24 3 2 40 0
c5933 no_teacher11 1 1 150 0
c5934 t38 3 2 50 0
c5935 t187 4 2 200 0
c5936 t217 1 1 150 0
c5937 t41 1 1 0 0
c5938 t42 1 1 30 0
c5939 t226 1 1 10 0
c5940 t43 6 4 20 0
c5941 t44 1 1 0 0
c5942 t108 1 1 110 0
c5943 no_teacher12 4 2 60 0
c5944 t45 6 4 150 0
c5945 t37 4 2 20 0
c5946 t46 1 1 0 0
c5947 no_teacher13 20 4 59 1
c5948 t9 6 4 40 0
c5949 t151 6 4 50 0
c5950 t42 4 2 30 0
c5951 t206 5 2 50 0
c5952 t221 6 4 0 0
c5953 t248 4 2 60 0
c5954 no_teacher14 4 2 40 0
c5955 t220 4 2 150 0
c5956 t231 4 2 200 0
c5957 t58 4 2 20 0
c5958 t173 4 2 30 0
c5959 t59 4 2 10 0
c5960 t61 1 1 32 0
c5961 t38 4 2 50 0
c5962 t227 3 1 10 0
c5963 t64 1 1 90 0
c5964 t23 4 2 40 0
c5965 t65 1 1 20 0
c5966 t37 4 2 150 0
c5967 t124 4 2 10 0
c5968 t61 4 2 66 0
c5969 t69 1 1 0 0
c5970 t85 6 4 101 0
c5971 no_teacher15 4 2 101 0
c5972 t222 6 4 70 0
c5973 t77 6 4 40 0
c5974 t58 8 4 150 0
c5975 t83 1 1 30 0
c5976 t36 4 2 160 0
c5977 no_teacher16 4 2 20 0
c5978 t81 4 2 120 0
c5979 no_teacher17 1 1 200 0
c5980 no_teacher18 1 1 80 0
c5981 t23 1 1 150 0
c5982 t88 1 1 150 0
c5983 no_teacher19 8 4 300 0
c5984 no_teacher20 8 4 300 0
c5985 no_teacher21 8 4 300 0
c5986 no_teacher22 1 1 300 0
c5987 no_teacher23 8 4 300 0
c5988 t84 4 2 50 0
c5989 no_teacher24 4 2 40 0
c5990 t82 4 2 101 0
c5991 t225 4 2 168 0
c5992 t5 6 3 200 1
c5993 t174 5 2 150 0
c5994 t46 6 4 160 0
c5995 t37 6 4 140 0
c5996 t56 6 4 50 0
c5997 t93 4 2 50 0
c5998 t219 4 2 300 0
c5999 t94 6 4 150 0
c6000 t219 6 4 249 0
c6001 t96 6 4 50 0
c6002 t47 4 2 50 0
c6003 t235 6 4 50 0
c6004 t193 6 2 10 1
c6005 t40 6 3 15 1
c6006 t105 6 4 7 0
c6007 t92 4 2 150 0
c6008 t109 1 1 100 0
c6009 t45 6 4 50 0
c6010 t40 6 3 200 1
c6011 t112 4 2 80 0
c6012 t107 6 4 80 0
c6013 t145 5 2 8 0
c6014 t4 6 4 0 0
c6015 t109 1 1 50 0
c6016 t149 6 4 200 0
c6017 t119 6 4 150 0
c6018 t43 6 4 30 0
c6019 t122 4 2 100 0
c6020 no_teacher25 4 2 5 0
c6021 t159 2 1 25 0
c6022 t245 4 2 100 0
c6023 t124 4 2 100 0
c6024 t125 4 2 101 0
c6025 t96 1 1 60 0
c6026 t64 6 4 40 0
c6027 t12 4 2 150 0
c6028 t41 6 4 10 0
c6029 t131 4 2 190 0
c6030 t18 6 4 40 0
c6031 t79 4 2 10 0
c6032 t245 6 4 10 0
c6033 no_teacher26 6 4 100 0
c6034 t18 1 1 40 0
c6035 no_teacher27 6 4 10 0
c6036 t6 1 1 20 0
c6037 t136 1 1 30 0
c6038 no_teacher28 6 4 100 0
c6039 t78 1 1 20 0
c6040 t237 4 2 10 0
c6041 t247 4 2 60 0
c6042 no_teacher29 4 2 40 0
c6043 t140 1 1 20 0
c6044 t142 4 2 50 0
c6045 t79 1 1 20 0
c6046 t128 1 1 50 0
c6047 t145 6 4 100 0
c6048 t78 6 4 10 0
c6049 t244 6 4 10 0
c6050 t131 6 4 20 0
c6051 t19 6 4 20 0
c6052 t136 6 4 0 0
c6053 t148 4 2 100 0
c6054 t209 4 2 100 0
cU2 t70 6 4 220 0
c6057 t77 6 4 50 0
c6058 t116 4 2 50 0
c6059 t150 1 1 4 0
c6060 t223 6 4 150 0
c6061 t43 1 1 101 0
c6062 t143 4 2 200 0
c6063 t143 4 2 140 0
c6064 t152 1 1 50 0
c6065 t178 2 1 300 0
c6066 no_teacher30 1 1 150 0
c6067 no_teacher31 1 1 150 0
c6068 t43 6 3 20 1
c6069 t36 4 2 10 0
c6070 t130 4 2 60 0
c6071 t192 1 1 0 0
c6072 t21 1 1 0 0
c6073 t108 6 4 220 0
c6074 t163 4 2 100 0
c6075 t176 4 2 5 0
c6076 t98 4 2 20 0
c6077 t98 1 1 20 0
c6078 t85 6 4 5 0
c6079 t65 4 2 100 0
c6080 t164 6 4 24 0
c6081 t246 7 4 200 0
c6082 t240 4 2 155 0
c6083 t168 6 4 40 0
c6084 t169 4 2 50 0
c6085 t155 6 4 50 0
c6086 t170 6 4 50 0
c6087 t235 6 4 5 0
c6088 t173 1 1 100 0
c6089 t154 4 2 50 0
c6090 t31 6 4 50 0
c6091 t179 6 4 200 0
c6092 t139 6 4 50 0
c6093 t225 6 3 15 1
cU3 t166 8 4 50 0
c6096 t144 4 2 50 0
c6097 t7 4 2 50 0

ROOMS:
r237 80 0
r238 80 0
r239 30 0
r240 30 0
r241 25 1
r242 168 1
r210 182 2
r211 182 2
r212 100 2
r213 320 2
r214 100 2
r215 60 2
r216 60 2
r217 45 2
r218 35 2
r219 54 3
r220 150 3
r221 60 3
r222 60 3
r223 209 3
r224 250 3
r225 250 3
r226 100 3
r227 100 3
r228 100 3
r229 66 3
r230 96 3
r231 96 3
r232 96 3
r233 63 3
r234 63 3
r235 63 3
r236 40 3

CURRICULA:
cu896 7 c5900 c5915 c5917 c5965 c5969 c6004 c6040
cu897 4 c5897 c5898 c5916 c6066
cu898 3 c5947 c6005 c6093
cu899 4 c5948 c5952 c6036 c6092
cu900 4 c6038 c6050 c6085 c5901
cu901 5 c5968 c5991 c6006 c6012 c6013
cu902 6 c5949 c5968 c5991 c6006 c6013 c6089
cu903 6 c5951 c5960 c6011 c6047 c6058 c6065
cu904 3 c5960 c6065 c6090
cu905 5 cU3 c5906 c6021 c6065 c6080
cu906 9 cU3 c5959 c5968 c5976 c5991 c6021 c6065 c6080 c6082
cu907 4 c5804 c5960 c6059 c6070
cu908 6 c5960 c6047 c6059 c6070 c6096 c6075
cu909 12 cU2 c5898 c5913 c5939 c5940 c5950 c5967 c5972 c6030 c6032 c6034 c6068
cu910 11 c5938 c5941 c5962 c5964 c6032 c6066 c6071 c6073 c6076 c6077 c5914
cu911 9 c5898 c5928 c5950 c5972 c5973 c5975 c6034 c6069 c6078
cu912 16 c5938 c5939 c5950 c5957 c5964 c5977 c5978 c6030 c6031 c6039 c6043 c6045 c6048 c6051 c6066 c6020
cu913 8 c5945 c5963 c6007 c6009 c6026 c6044 c6064 c6084
cu914 3 c5942 c5943 c5946
cu915 5 cU1 c5808 c5912 c6008 c6017
cu916 10 cU1 c5899 c5902 c5913 c5920 c5942 c5943 c6015 c6097 c6072
cu917 3 c6001 c6003 c6038
cu918a 13 c5896 c5922 c5934 c5937 c5978 c5996 c5997 c6002 c6007 c6014 c6028 c6035 c6037
cu918b 12 c5896 c5922 c5934 c5937 c5978 c5996 c6046 c6049 c6057 c6083 c6086 c6087 
cu919a 12 c5904 c5908 c5926 c5927 c5929 c5930 c5935 c5936 c5979 c5986 c5987 c5998
cu919b 12 c5904 c5908 c5927 c5929 c5930 c5931 c5935 c5936 c5979 c5980 c5983 c5984 
cu920 4 c5862 c5908 c6016 c6081
cu921 9 c5850 c5908 c5968 c5976 c5991 c6053 c6054 c6065 c6082
cu922 8 c5924 c5925 c5953 c5954 c5988 c5989 c6041 c6042
cu923 12 c5904 c5905 c5923 c5927 c5929 c5930 c5931 c5979 c5980 c5983 c5984 c5985
cu923 13 c5904 c5905 c5923 c5926 c5927 c5929 c5930 c5931 c5979 c5986 c5987 c5990 c6027
cu924 4 c5921 c5974 c5993 c6079
cu925 14 c5907 c5932 c5958 c5970 c5971 c6018 c6019 c6022 c6023 c6024 c6033 c6061 c6074 c6088
cu926a 12 c5904 c5926 c5927 c5929 c5930 c5931 c5979 c5980 c5981 c5983 c5984 c5985
cu926b 12 c5904 c5926 c5927 c5929 c5930 c5931 c5979 c5980 c5986 c5987 c5999 c6000
cu927 7 cU2 c5918 c5919 c5994 c5995 c6062 c6063
cu928 2 c5944 c6060
cu929 2 c5903 c6073
cu930a 11 c5904 c5926 c5927 c5929 c5930 c5931 c5956 c5979 c5980 c5982 c5983
cu930b 12 c5904 c5926 c5927 c5929 c5930 c5931 c5933 c5956 c5984 c5985 c5986 c5987
cu931 4 c5909 c5992 c6010 c6029
cu932 5 c5961 c5966 c6067 c6091 c6025

UNAVAILABILITY_CONSTRAINTS:

ROOM_CONSTRAINTS:

END.
